51
Properties=species:S:1:pos:R:3 charge=0 spin=1 pbc="F F F"
Si      -0.04570466      -0.44260418       0.61287501
O        1.68017357       0.10276502       0.06856967
C        2.54600496      -0.53590060      -0.55151030
C        3.91877528      -0.08349448      -0.60565931
H        2.26196519      -1.44122575      -1.08568983
C        4.33827804       1.03669248       0.11727860
C        4.82222169      -0.79941859      -1.39177666
C        5.65646737       1.43915365       0.04058353
H        3.62265039       1.56407412       0.73519251
C        6.14191617      -0.39005377      -1.46674643
H        4.48267446      -1.67275571      -1.93597373
C        6.55388870       0.72860446      -0.75364270
H        5.99453979       2.30223018       0.59832319
H        6.84881053      -0.93766137      -2.07519708
H        7.58625061       1.04929291      -0.81122181
C        2.76871270      -3.11909875       1.28572027
C        1.68076742      -2.45539971       1.57503220
H        2.72067392      -4.07395963       0.77620993
H        3.74424552      -2.75959301       1.59291010
C        0.61754127      -1.74624068       1.80291225
H        0.10557754      -1.85940609       2.75411793
Cl       0.03053545       1.12249208       2.14817869
Cl      -0.18210580      -1.79974120      -1.14390455
O       -0.64481049       0.80160125      -0.65528065
O       -1.80745471      -0.66641216       1.08072746
C       -2.79221515       1.48650277      -0.20185297
C       -3.24348212       0.12103145      -0.53169364
C       -3.13827519      -2.19976812      -0.00533611
C       -0.98269621       3.03163029      -0.17214534
C       -1.87068106       4.04282117       0.16015129
C       -3.68517923       2.48477425       0.12138229
C       -3.21562288       3.77528187       0.32497557
C       -4.22729168      -0.10957314      -1.46763066
C       -4.65970536      -1.40997633      -1.69212047
C       -4.12024561      -2.44412193      -0.95326359
H       -4.73273332       2.23920702       0.22198382
H       -3.90110610       4.56652143       0.59597171
H       -4.62894556       0.72631121      -2.02198609
H       -5.41911256      -1.60806989      -2.43606027
H       -4.44704723      -3.46402459      -1.09377730
C       -2.53607171      -3.23322169       0.87560050
N       -1.47434758       1.78470395      -0.30619567
N       -2.72500092      -0.92830524       0.14940659
C        0.46552175       3.23550633      -0.43598821
H       -1.47961826       5.04231817       0.28414649
H        0.71283444       2.87764252      -1.43656608
H        0.71011613       4.29130327      -0.35122258
H        1.05649961       2.65828723       0.27338057
H       -1.45429659      -3.25946389       0.74479057
H       -2.72914971      -2.98462509       1.92045871
H       -2.96175508      -4.20636093       0.64508691
